c FILE: random-n100-d40-a-n100-d40-1.col

p edge 100 1980
e 1 3
e 1 6
e 1 11
e 1 18
e 1 19
e 1 20
e 1 21
e 1 23
e 1 26
e 1 27
e 1 31
e 1 33
e 1 34
e 1 37
e 1 39
e 1 40
e 1 48
e 1 49
e 1 50
e 1 51
e 1 52
e 1 57
e 1 61
e 1 62
e 1 63
e 1 68
e 1 73
e 1 76
e 1 77
e 1 78
e 1 79
e 1 81
e 1 83
e 1 86
e 1 88
e 1 89
e 1 90
e 1 91
e 1 93
e 1 95
e 1 97
e 2 3
e 2 4
e 2 6
e 2 11
e 2 12
e 2 13
e 2 15
e 2 18
e 2 19
e 2 22
e 2 31
e 2 33
e 2 34
e 2 35
e 2 39
e 2 42
e 2 43
e 2 49
e 2 50
e 2 52
e 2 54
e 2 55
e 2 57
e 2 58
e 2 61
e 2 67
e 2 70
e 2 71
e 2 75
e 2 81
e 2 89
e 2 90
e 2 91
e 2 93
e 2 96
e 3 4
e 3 5
e 3 6
e 3 11
e 3 15
e 3 20
e 3 21
e 3 23
e 3 26
e 3 28
e 3 29
e 3 33
e 3 35
e 3 41
e 3 42
e 3 43
e 3 49
e 3 50
e 3 52
e 3 53
e 3 55
e 3 56
e 3 70
e 3 74
e 3 75
e 3 77
e 3 80
e 3 82
e 3 83
e 3 85
e 3 89
e 3 90
e 3 93
e 3 94
e 3 98
e 4 5
e 4 8
e 4 9
e 4 13
e 4 14
e 4 18
e 4 19
e 4 24
e 4 25
e 4 28
e 4 30
e 4 32
e 4 35
e 4 40
e 4 42
e 4 43
e 4 46
e 4 53
e 4 55
e 4 56
e 4 58
e 4 59
e 4 63
e 4 67
e 4 68
e 4 69
e 4 72
e 4 74
e 4 76
e 4 77
e 4 79
e 4 82
e 4 85
e 4 86
e 4 87
e 4 88
e 4 89
e 4 92
e 5 8
e 5 9
e 5 11
e 5 15
e 5 16
e 5 23
e 5 24
e 5 25
e 5 26
e 5 28
e 5 30
e 5 31
e 5 32
e 5 33
e 5 34
e 5 36
e 5 37
e 5 38
e 5 39
e 5 43
e 5 47
e 5 49
e 5 53
e 5 57
e 5 58
e 5 63
e 5 65
e 5 68
e 5 74
e 5 76
e 5 81
e 5 82
e 5 83
e 5 85
e 5 87
e 5 88
e 5 90
e 5 91
e 5 97
e 5 98
e 6 7
e 6 12
e 6 14
e 6 15
e 6 16
e 6 18
e 6 19
e 6 22
e 6 23
e 6 24
e 6 25
e 6 28
e 6 30
e 6 32
e 6 35
e 6 40
e 6 42
e 6 43
e 6 49
e 6 50
e 6 53
e 6 54
e 6 56
e 6 58
e 6 59
e 6 60
e 6 61
e 6 66
e 6 71
e 6 72
e 6 75
e 6 77
e 6 78
e 6 79
e 6 82
e 6 84
e 6 87
e 6 88
e 6 89
e 6 96
e 6 98
e 6 99
e 6 100
e 7 8
e 7 9
e 7 10
e 7 11
e 7 12
e 7 17
e 7 24
e 7 26
e 7 27
e 7 28
e 7 32
e 7 35
e 7 38
e 7 44
e 7 47
e 7 49
e 7 53
e 7 55
e 7 58
e 7 60
e 7 63
e 7 65
e 7 69
e 7 71
e 7 73
e 7 75
e 7 90
e 7 94
e 7 95
e 7 100
e 8 9
e 8 11
e 8 13
e 8 14
e 8 17
e 8 19
e 8 20
e 8 21
e 8 22
e 8 27
e 8 28
e 8 29
e 8 31
e 8 33
e 8 34
e 8 37
e 8 42
e 8 46
e 8 48
e 8 50
e 8 55
e 8 57
e 8 63
e 8 66
e 8 68
e 8 69
e 8 72
e 8 75
e 8 76
e 8 78
e 8 84
e 8 85
e 8 87
e 8 88
e 8 89
e 8 91
e 8 92
e 8 98
e 9 15
e 9 17
e 9 19
e 9 22
e 9 25
e 9 30
e 9 32
e 9 34
e 9 35
e 9 37
e 9 38
e 9 39
e 9 41
e 9 47
e 9 50
e 9 52
e 9 54
e 9 56
e 9 62
e 9 63
e 9 66
e 9 67
e 9 71
e 9 74
e 9 90
e 9 93
e 9 94
e 9 96
e 9 97
e 9 100
e 10 11
e 10 15
e 10 16
e 10 17
e 10 18
e 10 19
e 10 22
e 10 23
e 10 28
e 10 29
e 10 30
e 10 31
e 10 34
e 10 36
e 10 38
e 10 39
e 10 44
e 10 45
e 10 50
e 10 51
e 10 54
e 10 55
e 10 56
e 10 57
e 10 61
e 10 62
e 10 63
e 10 65
e 10 73
e 10 74
e 10 75
e 10 77
e 10 81
e 10 82
e 10 86
e 10 89
e 10 95
e 11 18
e 11 19
e 11 22
e 11 23
e 11 25
e 11 27
e 11 29
e 11 30
e 11 32
e 11 35
e 11 39
e 11 43
e 11 46
e 11 48
e 11 53
e 11 56
e 11 58
e 11 60
e 11 62
e 11 64
e 11 65
e 11 67
e 11 68
e 11 69
e 11 72
e 11 76
e 11 77
e 11 78
e 11 82
e 11 84
e 11 94
e 11 95
e 11 100
e 12 13
e 12 14
e 12 16
e 12 18
e 12 20
e 12 24
e 12 26
e 12 28
e 12 32
e 12 33
e 12 35
e 12 37
e 12 38
e 12 39
e 12 45
e 12 46
e 12 47
e 12 48
e 12 55
e 12 58
e 12 63
e 12 69
e 12 75
e 12 76
e 12 78
e 12 83
e 12 84
e 12 85
e 12 87
e 12 89
e 12 90
e 12 91
e 12 92
e 12 98
e 13 14
e 13 25
e 13 27
e 13 30
e 13 31
e 13 34
e 13 38
e 13 40
e 13 45
e 13 46
e 13 53
e 13 59
e 13 61
e 13 63
e 13 65
e 13 66
e 13 67
e 13 72
e 13 73
e 13 75
e 13 77
e 13 80
e 13 85
e 13 86
e 13 88
e 13 91
e 13 92
e 13 95
e 13 97
e 13 98
e 13 99
e 13 100
e 14 15
e 14 17
e 14 20
e 14 22
e 14 27
e 14 30
e 14 31
e 14 32
e 14 33
e 14 36
e 14 39
e 14 45
e 14 46
e 14 48
e 14 49
e 14 51
e 14 53
e 14 55
e 14 56
e 14 57
e 14 58
e 14 61
e 14 63
e 14 64
e 14 67
e 14 68
e 14 71
e 14 72
e 14 73
e 14 74
e 14 76
e 14 78
e 14 79
e 14 80
e 14 82
e 14 85
e 14 86
e 14 87
e 14 89
e 14 90
e 14 93
e 14 97
e 14 99
e 14 100
e 15 17
e 15 18
e 15 23
e 15 25
e 15 27
e 15 31
e 15 36
e 15 37
e 15 38
e 15 40
e 15 42
e 15 43
e 15 44
e 15 45
e 15 50
e 15 53
e 15 55
e 15 58
e 15 60
e 15 61
e 15 63
e 15 65
e 15 66
e 15 71
e 15 74
e 15 77
e 15 79
e 15 80
e 15 83
e 15 86
e 15 87
e 15 88
e 15 89
e 15 91
e 15 92
e 15 95
e 15 96
e 15 97
e 16 17
e 16 18
e 16 21
e 16 23
e 16 25
e 16 27
e 16 30
e 16 31
e 16 32
e 16 33
e 16 35
e 16 36
e 16 37
e 16 39
e 16 44
e 16 45
e 16 46
e 16 48
e 16 50
e 16 51
e 16 53
e 16 54
e 16 56
e 16 57
e 16 59
e 16 60
e 16 64
e 16 68
e 16 72
e 16 75
e 16 76
e 16 84
e 16 87
e 16 90
e 16 94
e 16 95
e 16 96
e 17 18
e 17 21
e 17 25
e 17 26
e 17 30
e 17 38
e 17 46
e 17 47
e 17 48
e 17 50
e 17 55
e 17 56
e 17 60
e 17 61
e 17 62
e 17 63
e 17 67
e 17 68
e 17 74
e 17 76
e 17 83
e 17 85
e 17 87
e 17 90
e 17 93
e 17 95
e 17 100
e 18 20
e 18 21
e 18 23
e 18 24
e 18 26
e 18 28
e 18 29
e 18 34
e 18 36
e 18 41
e 18 44
e 18 47
e 18 51
e 18 52
e 18 55
e 18 57
e 18 63
e 18 72
e 18 76
e 18 85
e 18 86
e 18 90
e 18 96
e 18 100
e 19 20
e 19 21
e 19 31
e 19 32
e 19 33
e 19 34
e 19 36
e 19 38
e 19 39
e 19 52
e 19 53
e 19 60
e 19 62
e 19 63
e 19 64
e 19 66
e 19 68
e 19 70
e 19 72
e 19 73
e 19 74
e 19 75
e 19 77
e 19 79
e 19 80
e 19 81
e 19 83
e 19 84
e 19 85
e 19 86
e 19 89
e 19 90
e 19 93
e 19 94
e 19 96
e 19 99
e 20 24
e 20 26
e 20 27
e 20 29
e 20 32
e 20 33
e 20 36
e 20 40
e 20 42
e 20 43
e 20 50
e 20 56
e 20 57
e 20 59
e 20 63
e 20 66
e 20 69
e 20 70
e 20 72
e 20 73
e 20 75
e 20 76
e 20 77
e 20 78
e 20 79
e 20 81
e 20 83
e 20 85
e 20 86
e 20 90
e 20 92
e 20 95
e 20 97
e 21 23
e 21 27
e 21 29
e 21 30
e 21 33
e 21 34
e 21 36
e 21 38
e 21 39
e 21 41
e 21 42
e 21 44
e 21 46
e 21 48
e 21 49
e 21 50
e 21 52
e 21 55
e 21 57
e 21 58
e 21 60
e 21 62
e 21 64
e 21 65
e 21 67
e 21 70
e 21 74
e 21 75
e 21 77
e 21 78
e 21 79
e 21 80
e 21 89
e 21 90
e 21 91
e 21 94
e 21 96
e 21 98
e 22 23
e 22 25
e 22 27
e 22 28
e 22 30
e 22 32
e 22 35
e 22 36
e 22 38
e 22 40
e 22 45
e 22 50
e 22 51
e 22 56
e 22 57
e 22 65
e 22 68
e 22 72
e 22 73
e 22 75
e 22 78
e 22 79
e 22 80
e 22 85
e 22 86
e 22 88
e 22 89
e 22 90
e 22 96
e 22 99
e 23 24
e 23 33
e 23 34
e 23 37
e 23 40
e 23 47
e 23 48
e 23 49
e 23 52
e 23 54
e 23 58
e 23 60
e 23 61
e 23 68
e 23 71
e 23 76
e 23 77
e 23 82
e 23 86
e 23 87
e 23 92
e 23 93
e 23 94
e 23 95
e 23 99
e 24 25
e 24 29
e 24 30
e 24 32
e 24 36
e 24 38
e 24 44
e 24 47
e 24 50
e 24 53
e 24 54
e 24 57
e 24 62
e 24 65
e 24 68
e 24 72
e 24 74
e 24 76
e 24 77
e 24 78
e 24 79
e 24 80
e 24 81
e 24 84
e 24 87
e 24 88
e 24 89
e 24 91
e 24 93
e 24 94
e 24 97
e 24 99
e 25 28
e 25 29
e 25 30
e 25 31
e 25 33
e 25 35
e 25 36
e 25 37
e 25 39
e 25 42
e 25 44
e 25 45
e 25 47
e 25 54
e 25 58
e 25 59
e 25 60
e 25 68
e 25 72
e 25 73
e 25 75
e 25 80
e 25 82
e 25 83
e 25 85
e 25 87
e 25 89
e 25 90
e 25 91
e 26 27
e 26 28
e 26 29
e 26 32
e 26 34
e 26 41
e 26 43
e 26 44
e 26 46
e 26 48
e 26 51
e 26 53
e 26 55
e 26 57
e 26 58
e 26 59
e 26 62
e 26 63
e 26 64
e 26 66
e 26 70
e 26 73
e 26 74
e 26 75
e 26 76
e 26 78
e 26 79
e 26 81
e 26 88
e 26 92
e 26 94
e 26 96
e 26 99
e 26 100
e 27 28
e 27 30
e 27 33
e 27 34
e 27 35
e 27 36
e 27 38
e 27 44
e 27 45
e 27 47
e 27 51
e 27 52
e 27 53
e 27 55
e 27 60
e 27 61
e 27 62
e 27 66
e 27 67
e 27 68
e 27 70
e 27 72
e 27 73
e 27 74
e 27 75
e 27 77
e 27 79
e 27 80
e 27 82
e 27 84
e 27 86
e 27 88
e 27 93
e 27 95
e 27 96
e 27 97
e 27 100
e 28 31
e 28 32
e 28 33
e 28 45
e 28 46
e 28 47
e 28 49
e 28 53
e 28 55
e 28 58
e 28 62
e 28 63
e 28 65
e 28 67
e 28 69
e 28 70
e 28 72
e 28 76
e 28 84
e 28 86
e 28 87
e 28 89
e 28 94
e 28 97
e 29 30
e 29 31
e 29 35
e 29 36
e 29 38
e 29 42
e 29 47
e 29 49
e 29 52
e 29 58
e 29 59
e 29 61
e 29 62
e 29 65
e 29 66
e 29 68
e 29 69
e 29 70
e 29 71
e 29 79
e 29 80
e 29 81
e 29 85
e 29 88
e 29 90
e 29 92
e 29 94
e 29 96
e 29 97
e 30 38
e 30 39
e 30 44
e 30 48
e 30 50
e 30 54
e 30 56
e 30 59
e 30 60
e 30 62
e 30 64
e 30 65
e 30 68
e 30 71
e 30 73
e 30 75
e 30 77
e 30 80
e 30 88
e 30 89
e 30 91
e 30 93
e 30 94
e 30 95
e 30 99
e 30 100
e 31 35
e 31 38
e 31 41
e 31 43
e 31 44
e 31 45
e 31 49
e 31 59
e 31 61
e 31 68
e 31 70
e 31 71
e 31 72
e 31 73
e 31 81
e 31 83
e 31 90
e 31 91
e 31 92
e 31 95
e 31 97
e 31 98
e 31 99
e 32 35
e 32 38
e 32 41
e 32 42
e 32 44
e 32 45
e 32 49
e 32 50
e 32 56
e 32 57
e 32 59
e 32 60
e 32 62
e 32 63
e 32 66
e 32 67
e 32 68
e 32 69
e 32 70
e 32 73
e 32 75
e 32 77
e 32 79
e 32 82
e 32 85
e 32 86
e 32 88
e 32 93
e 32 96
e 32 97
e 32 98
e 32 99
e 33 34
e 33 38
e 33 41
e 33 42
e 33 47
e 33 52
e 33 53
e 33 54
e 33 55
e 33 56
e 33 57
e 33 58
e 33 61
e 33 64
e 33 65
e 33 67
e 33 68
e 33 70
e 33 71
e 33 72
e 33 73
e 33 75
e 33 78
e 33 79
e 33 80
e 33 81
e 33 82
e 33 83
e 33 85
e 33 86
e 33 87
e 33 91
e 33 94
e 33 97
e 33 98
e 33 99
e 34 40
e 34 44
e 34 48
e 34 50
e 34 52
e 34 53
e 34 58
e 34 63
e 34 64
e 34 67
e 34 69
e 34 71
e 34 74
e 34 76
e 34 78
e 34 81
e 34 83
e 34 88
e 34 90
e 34 92
e 34 93
e 34 95
e 34 100
e 35 37
e 35 38
e 35 40
e 35 41
e 35 42
e 35 44
e 35 45
e 35 47
e 35 48
e 35 54
e 35 55
e 35 56
e 35 58
e 35 62
e 35 63
e 35 65
e 35 66
e 35 67
e 35 69
e 35 71
e 35 73
e 35 75
e 35 78
e 35 85
e 35 89
e 35 90
e 35 92
e 35 95
e 35 96
e 35 99
e 36 38
e 36 39
e 36 41
e 36 45
e 36 46
e 36 49
e 36 53
e 36 58
e 36 60
e 36 69
e 36 70
e 36 74
e 36 77
e 36 78
e 36 84
e 36 87
e 36 88
e 36 92
e 36 93
e 36 98
e 37 41
e 37 42
e 37 43
e 37 47
e 37 51
e 37 53
e 37 55
e 37 63
e 37 64
e 37 68
e 37 69
e 37 73
e 37 79
e 37 80
e 37 81
e 37 82
e 37 83
e 37 85
e 37 86
e 37 89
e 37 91
e 37 93
e 37 96
e 37 99
e 38 40
e 38 41
e 38 43
e 38 44
e 38 45
e 38 48
e 38 52
e 38 54
e 38 56
e 38 59
e 38 61
e 38 66
e 38 68
e 38 69
e 38 71
e 38 75
e 38 78
e 38 81
e 38 82
e 38 83
e 38 86
e 38 88
e 38 96
e 38 100
e 39 47
e 39 49
e 39 50
e 39 58
e 39 59
e 39 65
e 39 66
e 39 68
e 39 72
e 39 73
e 39 79
e 39 80
e 39 86
e 39 88
e 39 89
e 39 90
e 39 92
e 39 93
e 40 42
e 40 43
e 40 46
e 40 51
e 40 54
e 40 57
e 40 58
e 40 62
e 40 63
e 40 70
e 40 72
e 40 75
e 40 76
e 40 78
e 40 79
e 40 85
e 40 86
e 40 87
e 40 89
e 40 92
e 40 94
e 40 97
e 40 100
e 41 42
e 41 43
e 41 47
e 41 52
e 41 55
e 41 57
e 41 62
e 41 65
e 41 66
e 41 67
e 41 70
e 41 72
e 41 73
e 41 75
e 41 76
e 41 77
e 41 80
e 41 82
e 41 84
e 41 87
e 41 88
e 41 89
e 41 92
e 41 95
e 41 97
e 41 98
e 41 99
e 42 48
e 42 50
e 42 53
e 42 54
e 42 55
e 42 60
e 42 65
e 42 66
e 42 67
e 42 69
e 42 71
e 42 74
e 42 75
e 42 79
e 42 81
e 42 82
e 42 85
e 42 86
e 42 88
e 42 90
e 42 92
e 42 93
e 42 95
e 42 96
e 42 99
e 43 45
e 43 55
e 43 58
e 43 60
e 43 65
e 43 66
e 43 68
e 43 69
e 43 70
e 43 73
e 43 75
e 43 76
e 43 77
e 43 80
e 43 82
e 43 86
e 43 88
e 43 92
e 43 94
e 43 96
e 43 100
e 44 46
e 44 48
e 44 49
e 44 50
e 44 51
e 44 52
e 44 58
e 44 62
e 44 64
e 44 71
e 44 73
e 44 74
e 44 78
e 44 87
e 44 89
e 44 92
e 44 94
e 44 97
e 45 46
e 45 48
e 45 49
e 45 51
e 45 53
e 45 55
e 45 59
e 45 62
e 45 65
e 45 67
e 45 70
e 45 71
e 45 76
e 45 79
e 45 81
e 45 85
e 45 87
e 45 90
e 45 91
e 45 92
e 45 96
e 45 100
e 46 47
e 46 48
e 46 51
e 46 52
e 46 54
e 46 56
e 46 58
e 46 63
e 46 66
e 46 70
e 46 73
e 46 74
e 46 77
e 46 79
e 46 80
e 46 81
e 46 82
e 46 83
e 46 84
e 46 85
e 46 88
e 46 89
e 46 90
e 46 92
e 46 94
e 46 95
e 46 96
e 46 99
e 47 52
e 47 53
e 47 55
e 47 60
e 47 65
e 47 69
e 47 71
e 47 77
e 47 79
e 47 80
e 47 82
e 47 84
e 47 90
e 47 98
e 47 99
e 48 54
e 48 55
e 48 56
e 48 58
e 48 59
e 48 60
e 48 61
e 48 64
e 48 69
e 48 73
e 48 74
e 48 75
e 48 78
e 48 83
e 48 91
e 48 96
e 48 97
e 48 99
e 49 53
e 49 54
e 49 57
e 49 60
e 49 63
e 49 64
e 49 65
e 49 69
e 49 70
e 49 76
e 49 79
e 49 82
e 49 84
e 49 90
e 49 92
e 49 93
e 49 94
e 49 99
e 50 51
e 50 53
e 50 55
e 50 56
e 50 60
e 50 67
e 50 69
e 50 71
e 50 74
e 50 75
e 50 76
e 50 83
e 50 88
e 50 89
e 50 91
e 50 97
e 51 53
e 51 55
e 51 56
e 51 58
e 51 59
e 51 61
e 51 63
e 51 64
e 51 65
e 51 75
e 51 77
e 51 79
e 51 80
e 51 83
e 51 84
e 51 87
e 51 88
e 51 91
e 51 92
e 51 98
e 51 99
e 52 54
e 52 55
e 52 56
e 52 60
e 52 61
e 52 63
e 52 65
e 52 68
e 52 71
e 52 75
e 52 80
e 52 81
e 52 82
e 52 83
e 52 87
e 52 88
e 52 89
e 52 91
e 52 98
e 52 99
e 53 59
e 53 61
e 53 64
e 53 67
e 53 68
e 53 70
e 53 71
e 53 73
e 53 74
e 53 77
e 53 79
e 53 80
e 53 83
e 53 86
e 53 88
e 53 90
e 53 92
e 53 93
e 53 96
e 53 98
e 53 99
e 54 55
e 54 56
e 54 57
e 54 58
e 54 59
e 54 62
e 54 63
e 54 66
e 54 67
e 54 69
e 54 74
e 54 75
e 54 76
e 54 81
e 54 82
e 54 86
e 54 88
e 54 89
e 54 91
e 54 92
e 54 94
e 55 57
e 55 62
e 55 63
e 55 66
e 55 68
e 55 71
e 55 73
e 55 77
e 55 78
e 55 79
e 55 80
e 55 81
e 55 82
e 55 83
e 55 84
e 55 89
e 55 92
e 55 93
e 55 96
e 55 97
e 55 98
e 55 100
e 56 58
e 56 62
e 56 64
e 56 68
e 56 70
e 56 71
e 56 77
e 56 80
e 56 83
e 56 93
e 56 97
e 57 59
e 57 61
e 57 69
e 57 70
e 57 77
e 57 81
e 57 82
e 57 83
e 57 84
e 57 85
e 57 86
e 57 87
e 57 88
e 57 89
e 57 90
e 57 91
e 57 92
e 57 96
e 58 60
e 58 63
e 58 68
e 58 69
e 58 71
e 58 73
e 58 74
e 58 81
e 58 84
e 58 86
e 58 87
e 58 88
e 58 91
e 58 92
e 58 94
e 58 95
e 58 98
e 58 100
e 59 61
e 59 62
e 59 67
e 59 70
e 59 73
e 59 74
e 59 75
e 59 78
e 59 81
e 59 84
e 59 87
e 59 93
e 59 94
e 59 95
e 59 96
e 59 99
e 60 65
e 60 71
e 60 72
e 60 73
e 60 74
e 60 75
e 60 76
e 60 78
e 60 82
e 60 83
e 60 84
e 60 85
e 60 86
e 60 87
e 60 88
e 60 91
e 60 92
e 60 94
e 60 100
e 61 62
e 61 64
e 61 66
e 61 69
e 61 70
e 61 72
e 61 75
e 61 80
e 61 83
e 61 90
e 61 94
e 61 98
e 62 66
e 62 67
e 62 71
e 62 73
e 62 75
e 62 76
e 62 78
e 62 80
e 62 85
e 62 88
e 62 90
e 62 95
e 62 96
e 62 99
e 62 100
e 63 64
e 63 69
e 63 71
e 63 73
e 63 75
e 63 76
e 63 79
e 63 80
e 63 81
e 63 83
e 63 84
e 63 87
e 63 88
e 63 89
e 63 91
e 63 93
e 63 95
e 63 97
e 63 98
e 63 99
e 64 66
e 64 68
e 64 69
e 64 71
e 64 74
e 64 76
e 64 78
e 64 85
e 64 86
e 64 87
e 64 91
e 64 93
e 64 94
e 64 96
e 64 97
e 64 100
e 65 70
e 65 71
e 65 73
e 65 77
e 65 78
e 65 79
e 65 80
e 65 83
e 65 89
e 65 92
e 65 96
e 65 97
e 65 99
e 66 68
e 66 69
e 66 77
e 66 81
e 66 84
e 66 86
e 66 87
e 66 89
e 66 99
e 66 100
e 67 68
e 67 71
e 67 73
e 67 74
e 67 75
e 67 76
e 67 77
e 67 78
e 67 82
e 67 84
e 67 92
e 67 93
e 67 94
e 68 76
e 68 77
e 68 78
e 68 81
e 68 82
e 68 84
e 68 86
e 68 87
e 68 88
e 68 90
e 68 92
e 68 94
e 68 98
e 69 70
e 69 71
e 69 72
e 69 73
e 69 75
e 69 76
e 69 77
e 69 78
e 69 79
e 69 80
e 69 82
e 69 83
e 69 84
e 69 85
e 69 86
e 69 88
e 69 93
e 69 94
e 69 96
e 69 100
e 70 72
e 70 78
e 70 79
e 70 81
e 70 82
e 70 84
e 70 88
e 70 89
e 70 92
e 70 95
e 70 98
e 71 72
e 71 74
e 71 75
e 71 76
e 71 79
e 71 81
e 71 82
e 71 83
e 71 84
e 71 86
e 71 90
e 71 91
e 71 92
e 71 98
e 71 99
e 72 79
e 72 80
e 72 81
e 72 82
e 72 83
e 72 84
e 72 88
e 72 91
e 72 95
e 73 75
e 73 78
e 73 79
e 73 80
e 73 84
e 73 85
e 73 86
e 73 92
e 73 97
e 73 100
e 74 75
e 74 80
e 74 83
e 74 84
e 74 85
e 74 91
e 74 92
e 74 98
e 74 99
e 74 100
e 75 76
e 75 78
e 75 87
e 75 89
e 75 90
e 75 92
e 75 93
e 75 97
e 76 79
e 76 85
e 76 86
e 76 90
e 76 92
e 76 98
e 76 99
e 77 78
e 77 80
e 77 81
e 77 83
e 77 84
e 77 85
e 77 87
e 77 88
e 77 89
e 77 93
e 77 94
e 77 95
e 77 97
e 77 99
e 78 79
e 78 80
e 78 82
e 78 83
e 78 87
e 78 90
e 78 96
e 78 97
e 78 99
e 78 100
e 79 82
e 79 86
e 79 87
e 79 91
e 79 95
e 80 81
e 80 82
e 80 84
e 80 86
e 80 89
e 80 93
e 80 95
e 80 99
e 81 84
e 81 87
e 81 89
e 81 91
e 81 92
e 81 93
e 81 96
e 81 98
e 81 100
e 82 83
e 82 84
e 82 85
e 82 87
e 82 90
e 82 96
e 82 99
e 82 100
e 83 87
e 83 88
e 83 89
e 83 96
e 83 98
e 83 99
e 83 100
e 84 87
e 84 89
e 84 99
e 84 100
e 85 87
e 85 91
e 85 92
e 85 94
e 85 95
e 85 96
e 85 98
e 86 87
e 86 88
e 86 89
e 86 90
e 86 91
e 86 92
e 86 94
e 86 98
e 87 89
e 87 90
e 87 91
e 87 93
e 87 94
e 87 97
e 87 98
e 88 90
e 88 93
e 88 94
e 88 96
e 88 99
e 89 91
e 89 92
e 89 94
e 89 97
e 89 98
e 89 99
e 89 100
e 90 91
e 90 94
e 90 95
e 90 99
e 90 100
e 91 97
e 92 93
e 92 98
e 92 100
e 93 94
e 93 96
e 93 99
e 94 96
e 94 97
e 94 99
e 94 100
e 95 97
e 95 98
e 96 97
e 96 100
e 97 99
e 97 100